Route #1: 26
Route #2: 31
Route #3: 56
Route #4: 111
Route #5: 12 103
Route #6: 33 37
Route #7: 35 113
Route #8: 75 120
Route #9: 45 71 104
Route #10: 53 98 119
Route #11: 10 69 29
Route #12: 91 112
Route #13: 18 21
Route #14: 118 22 40 65 80 4 7 77 64
Route #15: 20 101 8 39
Route #16: 48 5 32
Route #17: 121 57 100
Route #18: 117 27 1 46 63 79 36 55
Route #19: 70 115 88 89 105 51
Route #20: 59 9 19 87 114 11
Route #21: 84 54 67 72 41 107 58
Route #22: 95 94 47 68 25 109 30 108
Route #23: 50 124 2 6 34 28 78
Route #24: 62 85 61 83
Route #25: 42 81 92 15 17 116 66
Route #26: 90 43 73 122
Route #27: 74 16 99 110
Route #28: 13 97 123 44 52 102
Route #29: 38 60
Route #30: 76 106 86
Route #31: 23 49 3 14
Route #32: 24 82
Route #33: 93 96
Cost 58827.06248925937